     Program PWSCF v.6.4.1 starts on 13Aug2020 at 21: 5:10

     R & G space division:  proc/nbgrp/npool/nimage =     128
     Reading input from input.in
Warning: card &CELL ignored
Warning: card    CELL_DYNAMICS    = 'BFGS' ignored
Warning: card / ignored

     Current dimensions of program PWSCF are:
     Max number of different atomic species (ntypx) = 10
     Max number of k-points (npk) =  40000
     Max angular momentum in pseudopotentials (lmaxx) =  3

     IMPORTANT: XC functional enforced from input :
     Exchange-correlation      = SCAN ( 0  0  0  0 0 5)
     Any further DFT definition will be discarded
     Please, verify this is what you really want

     Subspace diagonalization in iterative solution of the eigenvalue problem:
     a serial algorithm will be used

     Message from routine setup:
     DEPRECATED: symmetry with ibrav=0, use correct ibrav instead

     bravais-lattice index     =            0
     lattice parameter (alat)  =       5.7888  a.u.
     unit-cell volume          =    1761.3593 (a.u.)^3
     number of atoms/cell      =           13
     number of atomic types    =            3
     number of electrons       =       163.00
     number of Kohn-Sham states=           98
     kinetic-energy cutoff     =      80.0000  Ry
     charge density cutoff     =     320.0000  Ry
     convergence threshold     =      1.0E-06
     mixing beta               =       0.3000
     number of iterations used =            8  plain     mixing
     Exchange-correlation      = SCAN ( 0  0  0  0 0 5)
     nstep                     =          400

     celldm(1)=   5.788779  celldm(2)=   0.000000  celldm(3)=   0.000000
     celldm(4)=   0.000000  celldm(5)=   0.000000  celldm(6)=   0.000000

     crystal axes: (cart. coord. in units of alat)
               a(1) = (   1.000000   0.000000   0.000000 )
               a(2) = (  -0.500000   0.866025   0.000000 )
               a(3) = (   0.000000   0.000000  10.484708 )

     reciprocal axes: (cart. coord. in units 2 pi/alat)
               b(1) = (  1.000000  0.577350  0.000000 )
               b(2) = (  0.000000  1.154701  0.000000 )
               b(3) = (  0.000000  0.000000  0.095377 )

     PseudoPot. # 1 for Rh read from file:
     /home01/x1837a02/program/pp_oncv/Rh_ONCV_PBE-1.2.upf
     MD5 check sum: bad865ff0eae7a34a2bc08b65ba9af62
     Pseudo is Norm-conserving, Zval = 17.0
     Generated using ONCVPSP code by D. R. Hamann
     Using radial grid of  602 points,  6 beta functions with:
                l(1) =   0
                l(2) =   0
                l(3) =   1
                l(4) =   1
                l(5) =   2
                l(6) =   2

     PseudoPot. # 2 for Cu read from file:
     /home01/x1837a02/program/pp_oncv/Cu_ONCV_PBE-1.2.upf
     MD5 check sum: 80213f8971cc881d9b4c24e0a73cd931
     Pseudo is Norm-conserving, Zval = 19.0
     Generated using ONCVPSP code by D. R. Hamann
     Using radial grid of  602 points,  6 beta functions with:
                l(1) =   0
                l(2) =   0
                l(3) =   1
                l(4) =   1
                l(5) =   2
                l(6) =   2

     PseudoPot. # 3 for O  read from file:
     /home01/x1837a02/program/pp_oncv/O_ONCV_PBE-1.2.upf
     MD5 check sum: e36c48deb68f4e355fffe4602be2c42c
     Pseudo is Norm-conserving, Zval =  6.0
     Generated using ONCVPSP code by D. R. Hamann
     Using radial grid of  602 points,  4 beta functions with:
                l(1) =   0
                l(2) =   0
                l(3) =   1
                l(4) =   1

     atomic species   valence    mass     pseudopotential
        Rh            17.00   102.90550     Rh( 1.00)
        Cu            19.00    63.54600     Cu( 1.00)
        O              6.00    15.99900     O ( 1.00)

      4 Sym. Ops., with inversion, found

                                    s                        frac. trans.

      isym =  1     identity

 cryst.   s( 1) = (     1          0          0      )
                  (     0          1          0      )
                  (     0          0          1      )

 cart.    s( 1) = (  1.0000000  0.0000000  0.0000000 )
                  (  0.0000000  1.0000000  0.0000000 )
                  (  0.0000000  0.0000000  1.0000000 )

      isym =  2     180 deg rotation - cryst. axis [1,1,0]

[...]

      isym =  3     inversion

[...]

      isym =  4     inv. 180 deg rotation - cryst. axis [1,1,0]

 cryst.   s( 4) = (     0         -1          0      )
                  (    -1          0          0      )
                  (     0          0          1      )

 cart.    s( 4) = (  0.5000000 -0.8660254  0.0000000 )
                  ( -0.8660254 -0.5000000  0.0000000 )
                  (  0.0000000  0.0000000  1.0000000 )

   Cartesian axes

     site n.     atom                  positions (alat units)
         1           Rh  tau(   1) = (   0.0000000   0.0000000   5.2423536  )
         2           Rh  tau(   2) = (   0.5000050   0.2886723   7.1020994  )
         3           Rh  tau(   3) = (  -0.0000050   0.5773532   3.3826074  )
         4           Cu  tau(   4) = (   0.0000000   0.0000000   2.4483479  )
         5           Cu  tau(   5) = (   0.0000000   0.0000000   8.0363599  )
         6           Cu  tau(   6) = (   0.5000050   0.2886723   4.3201083  )
         7           Cu  tau(   7) = (  -0.0000050   0.5773532   6.1645995  )
         8           O   tau(   8) = (   0.0000000   0.0000000   3.0464327  )
         9           O   tau(   9) = (   0.0000000   0.0000000   7.4382751  )
        10           O   tau(  10) = (   0.5000050   0.2886723   4.9115432  )
        11           O   tau(  11) = (   0.5000050   0.2886723   3.7181675  )
        12           O   tau(  12) = (  -0.0000050   0.5773532   6.7665392  )
        13           O   tau(  13) = (  -0.0000050   0.5773532   5.5731635  )

   Crystallographic axes

     site n.     atom                  positions (cryst. coord.)
         1           Rh  tau(   1) = (  0.0000000  0.0000000  0.5000000  )
         2           Rh  tau(   2) = (  0.6666700  0.3333300  0.6773770  )
         3           Rh  tau(   3) = (  0.3333300  0.6666700  0.3226230  )
         4           Cu  tau(   4) = (  0.0000000  0.0000000  0.2335161  )
         5           Cu  tau(   5) = (  0.0000000  0.0000000  0.7664839  )
         6           Cu  tau(   6) = (  0.6666700  0.3333300  0.4120390  )
         7           Cu  tau(   7) = (  0.3333300  0.6666700  0.5879610  )
         8           O   tau(   8) = (  0.0000000  0.0000000  0.2905596  )
         9           O   tau(   9) = (  0.0000000  0.0000000  0.7094404  )
        10           O   tau(  10) = (  0.6666700  0.3333300  0.4684483  )
        11           O   tau(  11) = (  0.6666700  0.3333300  0.3546277  )
        12           O   tau(  12) = (  0.3333300  0.6666700  0.6453722  )
        13           O   tau(  13) = (  0.3333300  0.6666700  0.5315516  )

     number of k points=    21  gaussian smearing, width (Ry)=  0.0100
                       cart. coord. in units 2pi/alat
        k(    1) = (   0.0000000   0.0000000   0.0000000), wk =   0.0312500
        k(    2) = (   0.0000000   0.1443376   0.0000000), wk =   0.1250000
        k(    3) = (   0.0000000   0.2886751   0.0000000), wk =   0.1250000
        k(    4) = (   0.0000000   0.4330127   0.0000000), wk =   0.1250000
        k(    5) = (   0.0000000  -0.5773503   0.0000000), wk =   0.0625000
        k(    6) = (   0.1250000   0.2165064   0.0000000), wk =   0.0625000
        k(    7) = (   0.1250000   0.3608439   0.0000000), wk =   0.1250000
        k(    8) = (   0.1250000   0.5051815   0.0000000), wk =   0.1250000
        k(    9) = (   0.2500000   0.4330127   0.0000000), wk =   0.0625000
        k(   10) = (   0.2500000   0.5773503   0.0000000), wk =   0.1250000
        k(   11) = (  -0.1250000   0.0721688   0.0000000), wk =   0.0625000
        k(   12) = (  -0.2500000   0.1443376   0.0000000), wk =   0.0625000
        k(   13) = (  -0.3750000   0.2165064   0.0000000), wk =   0.0625000
        k(   14) = (   0.5000000  -0.2886751   0.0000000), wk =   0.0312500
        k(   15) = (  -0.1250000   0.2165064   0.0000000), wk =   0.1250000
        k(   16) = (  -0.2500000   0.2886751   0.0000000), wk =   0.1250000
        k(   17) = (   0.3750000   0.0721688   0.0000000), wk =   0.1250000
        k(   18) = (  -0.3750000   0.3608439   0.0000000), wk =   0.1250000
        k(   19) = (   0.5000000   0.1443376   0.0000000), wk =   0.1250000
        k(   20) = (  -0.2500000   0.4330127   0.0000000), wk =   0.1250000
        k(   21) = (  -0.3750000   0.5051815   0.0000000), wk =   0.0625000

                       cryst. coord.
        k(    1) = (   0.0000000   0.0000000   0.0000000), wk =   0.0312500
        k(    2) = (   0.0000000   0.1250000   0.0000000), wk =   0.1250000
        k(    3) = (   0.0000000   0.2500000   0.0000000), wk =   0.1250000
        k(    4) = (   0.0000000   0.3750000   0.0000000), wk =   0.1250000
        k(    5) = (   0.0000000  -0.5000000   0.0000000), wk =   0.0625000
        k(    6) = (   0.1250000   0.1250000   0.0000000), wk =   0.0625000
        k(    7) = (   0.1250000   0.2500000   0.0000000), wk =   0.1250000
        k(    8) = (   0.1250000   0.3750000   0.0000000), wk =   0.1250000
        k(    9) = (   0.2500000   0.2500000   0.0000000), wk =   0.0625000
        k(   10) = (   0.2500000   0.3750000   0.0000000), wk =   0.1250000
        k(   11) = (  -0.1250000   0.1250000   0.0000000), wk =   0.0625000
        k(   12) = (  -0.2500000   0.2500000   0.0000000), wk =   0.0625000
        k(   13) = (  -0.3750000   0.3750000   0.0000000), wk =   0.0625000
        k(   14) = (   0.5000000  -0.5000000   0.0000000), wk =   0.0312500
        k(   15) = (  -0.1250000   0.2500000   0.0000000), wk =   0.1250000
        k(   16) = (  -0.2500000   0.3750000   0.0000000), wk =   0.1250000
        k(   17) = (   0.3750000  -0.1250000   0.0000000), wk =   0.1250000
        k(   18) = (  -0.3750000   0.5000000   0.0000000), wk =   0.1250000
        k(   19) = (   0.5000000  -0.1250000   0.0000000), wk =   0.1250000
        k(   20) = (  -0.2500000   0.5000000   0.0000000), wk =   0.1250000
        k(   21) = (  -0.3750000   0.6250000   0.0000000), wk =   0.0625000

     Initial potential from superposition of free atoms

     starting charge  162.73208, renormalised to  163.00000

     negative rho (up,down):  2.062E-04 0.000E+00
     Starting wfcs are random

     Self-consistent Calculation

     iteration #  1     ecut=    80.00 Ry     beta= 0.30
     Davidson diagonalization with overlap
     ethr =  1.00E-02,  avg # of iterations = 11.5

     negative rho (up,down):  3.569E-05 0.000E+00

     total energy              =   -2302.35522078 Ry
     Harris-Foulkes estimate   =   -2302.70408874 Ry
     estimated scf accuracy    <     894.91725989 Ry

[...]

     End of self-consistent calculation

          k = 0.0000 0.0000 0.0000 ( 21311 PWs)   bands (ev):

  -109.9139-109.9135-109.5808-109.5797 -75.8004 -75.7724 -75.7715 -66.6311
   -66.6308 -66.2472 -66.2472 -66.2469 -66.2469 -66.2162 -66.2151 -65.9029
[...]
     atom    4 type  2   force =     0.00000000    0.00000000    0.00000000
     atom    5 type  2   force =     0.00000000    0.00000000    0.00000000
     atom    6 type  2   force =     0.00000000    0.00000000    0.00000000
     atom    7 type  2   force =     0.00000000    0.00000000    0.00000000
     atom    8 type  3   force =     0.00000000    0.00000000    0.00000000
     atom    9 type  3   force =     0.00000000    0.00000000    0.00000000
     atom   10 type  3   force =     0.00000000    0.00000000    0.00000000
     atom   11 type  3   force =     0.00000000    0.00000000    0.00000000
     atom   12 type  3   force =     0.00000000    0.00000000    0.00000000
     atom   13 type  3   force =     0.00000000    0.00000000    0.00000000
     The SCF correction term to forces
     atom    1 type  1   force =     0.00000000    0.00000000    0.00000000
     atom    2 type  1   force =    -0.00000014    0.00000008   -0.00039571
     atom    3 type  1   force =     0.00000014   -0.00000008    0.00039571
     atom    4 type  2   force =    -0.00000050    0.00000029    0.00029663
     atom    5 type  2   force =     0.00000050   -0.00000029   -0.00029663
     atom    6 type  2   force =     0.00000004   -0.00000002    0.00018843
     atom    7 type  2   force =    -0.00000004    0.00000002   -0.00018843
     atom    8 type  3   force =    -0.00000012    0.00000007    0.00005127
     atom    9 type  3   force =     0.00000012   -0.00000007   -0.00005127
     atom   10 type  3   force =     0.00000000    0.00000000    0.00000000
     atom   11 type  3   force =     0.00000003   -0.00000002   -0.00000090
     atom   12 type  3   force =    -0.00000003    0.00000002    0.00000090
     atom   13 type  3   force =     0.00000000    0.00000000    0.00000000

     Total force =     0.047406     Total SCF correction =     0.000752

     BFGS Geometry Optimization

     number of scf cycles    =   1
     number of bfgs steps    =   0

     energy   new            =   -2303.0488536167 Ry

     new trust radius        =       0.0255379993 bohr
     new conv_thr            =       0.0000010000 Ry

ATOMIC_POSITIONS (angstrom)
Rh       0.000000000   0.000000000  16.058850110    0   0   0
Rh       1.531647631   0.884294254  21.756375623
Rh      -0.000002527   1.768592885  10.361323107
Cu       0.000000069  -0.000000040   7.488549886
Cu      -0.000000069   0.000000040  24.629151875
Cu       1.531631930   0.884303319  13.233031968
Cu       0.000013174   1.768583820  18.884669793
O       -0.000004060   0.000002344   9.345621242
O        0.000004060  -0.000002344  22.772080467
O        1.531660442   0.884286858  15.045481856    0   0   0
O        1.531652434   0.884291481  11.390087934
O       -0.000007330   1.768595658  20.727610746
O       -0.000015338   1.768600282  17.072216823    0   0   0

     Writing output data file pwscf.save/
     Writing meta-gga kinetic term
     charge density from previous step

[...]

     iteration #  1     ecut=    80.00 Ry     beta= 0.30
     Davidson diagonalization with overlap
     c_bands:  1 eigenvalues not converged
     c_bands:  1 eigenvalues not converged
     ethr =  1.00E-06,  avg # of iterations = 11.0

[...]

     energy   old            =   -2303.0488536167 Ry
     energy   new            =   -2303.0505255816 Ry

     CASE: energy  _new < energy  _old

[...]

     Total force =     0.010724     Total SCF correction =     0.001803
     SCF correction compared to forces is large: reduce conv_thr to get better values

[...]

     WARNING: bfgs curvature condition failed, Theta= 0.941
     new trust radius        =       0.0092008321 bohr
     new conv_thr            =       0.0000000580 Ry

[...]

     Total force =     0.004297     Total SCF correction =     0.000174

[...]

     iteration #  1     ecut=    80.00 Ry     beta= 0.30
     Davidson diagonalization with overlap
     c_bands:  1 eigenvalues not converged
     c_bands:  1 eigenvalues not converged
     ethr =  1.00E-06,  avg # of iterations = 10.0

[...]

     negative rho (up,down):  7.421E-08 0.000E+00

[...]

     number of scf cycles    =  14
     number of bfgs steps    =  13

     energy   old            =   -2303.0525425992 Ry
     energy   new            =   -2303.0525463307 Ry

     CASE: energy  _new < energy  _old

     new trust radius        =       0.0012844078 bohr
     new conv_thr            =       0.0000000100 Ry

ATOMIC_POSITIONS (angstrom)
Rh       0.000000000   0.000000000  16.058850110    0   0   0
Rh       1.531646163   0.884295102  21.729038952
Rh      -0.000001059   1.768592038  10.388659779
Cu      -0.000000050   0.000000029   7.482002108
Cu       0.000000050  -0.000000029  24.635699652
Cu       1.531635605   0.884301198  13.235891988
Cu       0.000009499   1.768585942  18.881809772
O       -0.000000203   0.000000117   9.390246209
O        0.000000203  -0.000000117  22.727455500
O        1.531660442   0.884286858  15.045481856    0   0   0
O        1.531644557   0.884296029  11.398445060
O        0.000000547   1.768591111  20.719253620
O       -0.000015338   1.768600282  17.072216823    0   0   0

     Writing output data file pwscf.save/
     Writing meta-gga kinetic term
     charge density from previous step

     Self-consistent Calculation

[...]

     total energy              =   -2303.05254717 Ry
     Harris-Foulkes estimate   =   -2303.05254717 Ry
     estimated scf accuracy    <       0.00000001 Ry

     iteration # 12     ecut=    80.00 Ry     beta= 0.30
     Davidson diagonalization with overlap
     ethr =  6.99E-12,  avg # of iterations =  1.3

     End of self-consistent calculation

[...]

          k = 0.5000 0.1443 0.0000 ( 21292 PWs)   bands (ev):

[...]

          k =-0.3750 0.5052 0.0000 ( 21294 PWs)   bands (ev):

  -109.8562-109.8559-109.4804-109.4793 -75.7216 -75.7209 -75.7207 -66.5808
   -66.5805 -66.1944 -66.1941 -66.1924 -66.1921 -66.0605 -66.0594 -65.8737
   -65.8726 -65.8716 -65.8705 -42.9416 -42.8914 -42.8874 -42.8865 -42.8368
   -42.8360 -42.6483 -42.6256 -42.6248 -15.2274 -15.1374 -15.0214 -14.9936
   -14.8643 -14.8623  -1.8451  -1.6365  -1.5365  -1.3920  -1.2329  -1.2133
    -0.9571  -0.9546  -0.4984  -0.3818  -0.3674  -0.2427  -0.1979  -0.0461
    -0.0301   0.6931   0.9548   0.9823   3.2235   3.3291   3.4223   3.4519
     3.4563   3.5966   3.6037   3.6528   3.6636   3.7546   3.7678   3.8226
     3.8352   3.8489   3.8764   3.9020   3.9101   4.0809   4.0822   4.1519
     4.1534   4.2219   4.2366   4.6302   4.7461   5.1359   5.1449   5.3472
     5.4075   7.9859   8.0280   8.1236   8.1244   8.1516   8.1912   9.5568
     9.5590  10.0309  10.0463  10.2964  10.3431  11.9467  12.0401  12.3740
    12.3752  14.6530

     occupation numbers
     1.0000   1.0000   1.0000   1.0000   1.0000   1.0000   1.0000   1.0000
     1.0000   1.0000   1.0000   1.0000   1.0000   1.0000   1.0000   1.0000
     1.0000   1.0000   1.0000   1.0000   1.0000   1.0000   1.0000   1.0000
     1.0000   1.0000   1.0000   1.0000   1.0000   1.0000   1.0000   1.0000
     1.0000   1.0000   1.0000   1.0000   1.0000   1.0000   1.0000   1.0000
     1.0000   1.0000   1.0000   1.0000   1.0000   1.0000   1.0000   1.0000
     1.0000   1.0000   1.0000   1.0000   1.0000   1.0000   1.0000   1.0000
     1.0000   1.0000   1.0000   1.0000   1.0000   1.0000   1.0000   1.0000
     1.0000   1.0000   1.0000   1.0000   1.0000   1.0000   1.0000   1.0000
     1.0000   1.0000   1.0000   1.0000   1.0000   1.0000   1.0000   1.0000
     1.0000   0.0000   0.0000   0.0000   0.0000   0.0000   0.0000   0.0000
     0.0000   0.0000   0.0000   0.0000   0.0000   0.0000   0.0000   0.0000
     0.0000   0.0000

     the Fermi energy is     5.8313 ev

!    total energy              =   -2303.05254717 Ry
     Harris-Foulkes estimate   =   -2303.05254717 Ry
     estimated scf accuracy    <          6.8E-09 Ry

     The total energy is the sum of the following terms:

     one-electron contribution =  -20076.81827275 Ry
     hartree contribution      =   10074.40408490 Ry
     xc contribution           =    -247.63791331 Ry
     ewald contribution        =    7947.00142563 Ry
     smearing contrib. (-TS)   =      -0.00187164 Ry

     convergence has been achieved in  12 iterations
     Writing meta-gga kinetic term

     Forces acting on atoms (cartesian axes, Ry/au):

     atom    1 type  1   force =     0.00000000    0.00000000    0.00000000
     atom    2 type  1   force =    -0.00000075    0.00000043    0.00022798
     atom    3 type  1   force =     0.00000075   -0.00000043   -0.00022798
     atom    4 type  2   force =     0.00000007   -0.00000004    0.00002013
     atom    5 type  2   force =    -0.00000007    0.00000004   -0.00002013
     atom    6 type  2   force =     0.00003669   -0.00002119    0.00010232
     atom    7 type  2   force =    -0.00003669    0.00002119   -0.00010232
     atom    8 type  3   force =    -0.00000059    0.00000034   -0.00000709
     atom    9 type  3   force =     0.00000059   -0.00000034    0.00000709
     atom   10 type  3   force =    -0.00000632    0.00000365    0.00108186
     atom   11 type  3   force =    -0.00000109    0.00000063    0.00013792
     atom   12 type  3   force =     0.00000109   -0.00000063   -0.00013792
     atom   13 type  3   force =     0.00000632   -0.00000365   -0.00108186
     The non-local contrib.  to forces
     atom    1 type  1   force =     0.00000000    0.00000000    0.00000000
     atom    2 type  1   force =     0.00000009   -0.00000005    0.00048200
     atom    3 type  1   force =    -0.00000009    0.00000005   -0.00048200
     atom    4 type  2   force =     0.00000007   -0.00000004   -0.42387513
     atom    5 type  2   force =    -0.00000007    0.00000004    0.42387513
     atom    6 type  2   force =     0.00001326   -0.00000766   -0.00263536
     atom    7 type  2   force =    -0.00001326    0.00000766    0.00263536
     atom    8 type  3   force =    -0.00000058    0.00000033    0.45010594
     atom    9 type  3   force =     0.00000058   -0.00000033   -0.45010594
     atom   10 type  3   force =    -0.00000564    0.00000326    0.19609850
     atom   11 type  3   force =    -0.00000588    0.00000340   -0.23813883
     atom   12 type  3   force =     0.00000588   -0.00000340    0.23813883
     atom   13 type  3   force =     0.00000564   -0.00000326   -0.19609850
     The ionic contribution  to forces
     atom    1 type  1   force =     0.00000043    0.00000074    0.00003680
     atom    2 type  1   force =    -0.00000914    0.00000478  283.15921715
     atom    3 type  1   force =     0.00000871   -0.00000553 -283.15914483
     atom    4 type  2   force =     0.00000012   -0.00000004 -471.43860513
     atom    5 type  2   force =    -0.00000010    0.00000008  471.43850343
     atom    6 type  2   force =    -0.00016680    0.00009627 -159.42851768
     atom    7 type  2   force =     0.00016677   -0.00009632  159.42835510
     atom    8 type  3   force =    -0.00000886    0.00000561 -120.04424734
     atom    9 type  3   force =     0.00000929   -0.00000487  120.04427389
     atom   10 type  3   force =    -0.00001864    0.00001030  -19.10301144
     atom   11 type  3   force =     0.00003936   -0.00002275  -80.48097331
     atom   12 type  3   force =    -0.00003938    0.00002271   80.48104861
     atom   13 type  3   force =     0.00001824   -0.00001100   19.10306476
     The local contribution  to forces
     atom    1 type  1   force =    -0.00000000    0.00000000    0.00023388
     atom    2 type  1   force =     0.00000302   -0.00001350 -283.15919413
     atom    3 type  1   force =    -0.00001320   -0.00000414  283.16011506
     atom    4 type  2   force =    -0.00000011    0.00000007  471.86264727
     atom    5 type  2   force =     0.00000011   -0.00000007 -471.86264724
     atom    6 type  2   force =     0.00017597   -0.00013467  159.43116731
     atom    7 type  2   force =    -0.00020459    0.00008504 -159.43116735
     atom    8 type  3   force =     0.00000907   -0.00000523  119.59423636
     atom    9 type  3   force =    -0.00000907    0.00000523 -119.59423292
     atom   10 type  3   force =     0.00001619   -0.00001275   18.90811097
     atom   11 type  3   force =    -0.00003610    0.00001746   80.71943870
     atom   12 type  3   force =     0.00003317   -0.00002253  -80.71923685
     atom   13 type  3   force =    -0.00001914    0.00000765  -18.90791164
     The core correction contribution to forces
     atom    1 type  1   force =     0.00000000    0.00000000    0.00000000
     atom    2 type  1   force =     0.00000000    0.00000000    0.00000000
     atom    3 type  1   force =     0.00000000    0.00000000    0.00000000
     atom    4 type  2   force =     0.00000000    0.00000000    0.00000000
     atom    5 type  2   force =     0.00000000    0.00000000    0.00000000
     atom    6 type  2   force =     0.00000000    0.00000000    0.00000000
     atom    7 type  2   force =     0.00000000    0.00000000    0.00000000
     atom    8 type  3   force =     0.00000000    0.00000000    0.00000000
     atom    9 type  3   force =     0.00000000    0.00000000    0.00000000
     atom   10 type  3   force =     0.00000000    0.00000000    0.00000000
     atom   11 type  3   force =     0.00000000    0.00000000    0.00000000
     atom   12 type  3   force =     0.00000000    0.00000000    0.00000000
     atom   13 type  3   force =     0.00000000    0.00000000    0.00000000
     The Hubbard contrib.    to forces
     atom    1 type  1   force =     0.00000000    0.00000000    0.00000000
     atom    2 type  1   force =     0.00000000    0.00000000    0.00000000
     atom    3 type  1   force =     0.00000000    0.00000000    0.00000000
     atom    4 type  2   force =     0.00000000    0.00000000    0.00000000
     atom    5 type  2   force =     0.00000000    0.00000000    0.00000000
     atom    6 type  2   force =     0.00000000    0.00000000    0.00000000
     atom    7 type  2   force =     0.00000000    0.00000000    0.00000000
     atom    8 type  3   force =     0.00000000    0.00000000    0.00000000
     atom    9 type  3   force =     0.00000000    0.00000000    0.00000000
     atom   10 type  3   force =     0.00000000    0.00000000    0.00000000
     atom   11 type  3   force =     0.00000000    0.00000000    0.00000000
     atom   12 type  3   force =     0.00000000    0.00000000    0.00000000
     atom   13 type  3   force =     0.00000000    0.00000000    0.00000000
     The SCF correction term to forces
     atom    1 type  1   force =     0.00000000    0.00000000    0.00000000
     atom    2 type  1   force =    -0.00000003    0.00000002    0.00021958
     atom    3 type  1   force =     0.00000003   -0.00000002   -0.00021958
     atom    4 type  2   force =    -0.00000000    0.00000000   -0.00019771
     atom    5 type  2   force =     0.00000000   -0.00000000    0.00019771
     atom    6 type  2   force =    -0.00000006    0.00000003    0.00000673
     atom    7 type  2   force =     0.00000006   -0.00000003   -0.00000673
     atom    8 type  3   force =    -0.00000000    0.00000000   -0.00008706
     atom    9 type  3   force =     0.00000000   -0.00000000    0.00008706
     atom   10 type  3   force =     0.00000000    0.00000000    0.00000000
     atom   11 type  3   force =     0.00000006   -0.00000004   -0.00005007
     atom   12 type  3   force =    -0.00000006    0.00000004    0.00005007
     atom   13 type  3   force =     0.00000000    0.00000000    0.00000000

     Total force =     0.000409     Total SCF correction =     0.000441
     SCF correction compared to forces is large: reduce conv_thr to get better values

     bfgs converged in  15 scf cycles and  14 bfgs steps
     (criteria: energy <  1.0E-06 Ry, force <  1.0E-03 Ry/Bohr)

     End of BFGS Geometry Optimization

     Final energy   =   -2303.0525471664 Ry
Begin final coordinates

ATOMIC_POSITIONS (angstrom)
Rh       0.000000000   0.000000000  16.058850110    0   0   0
Rh       1.531646163   0.884295102  21.729038952
Rh      -0.000001059   1.768592038  10.388659779
Cu      -0.000000050   0.000000029   7.482002108
Cu       0.000000050  -0.000000029  24.635699652
Cu       1.531635605   0.884301198  13.235891988
Cu       0.000009499   1.768585942  18.881809772
O       -0.000000203   0.000000117   9.390246209
O        0.000000203  -0.000000117  22.727455500
O        1.531660442   0.884286858  15.045481856    0   0   0
O        1.531644557   0.884296029  11.398445060
O        0.000000547   1.768591111  20.719253620
O       -0.000015338   1.768600282  17.072216823    0   0   0
End final coordinates

     Writing output data file pwscf.save/
     Writing meta-gga kinetic term

     General routines

     Parallel routines

   This run was terminated on:   0:14: 5  14Aug2020

   JOB DONE.